p cnf 225 976
-46 -6 -1 0
-46 6 1 0
46 -6 1 0
46 6 -1 0
-47 -7 -2 0
-47 7 2 0
47 -7 2 0
47 7 -2 0
-48 -8 -3 0
-48 8 3 0
48 -8 3 0
48 8 -3 0
-49 -9 -4 0
-49 9 4 0
49 -9 4 0
49 9 -4 0
-50 -10 -5 0
-50 10 5 0
50 -10 5 0
50 10 -5 0
-46 -47 0
-46 -48 0
-46 -49 0
-46 -50 0
-47 -48 0
-47 -49 0
-47 -50 0
-48 -49 0
-48 -50 0
-49 -50 0
46 47 48 49 50 0
-51 -11 -6 0
-51 11 6 0
51 -11 6 0
51 11 -6 0
-52 -12 -7 0
-52 12 7 0
52 -12 7 0
52 12 -7 0
-53 -13 -8 0
-53 13 8 0
53 -13 8 0
53 13 -8 0
-54 -14 -9 0
-54 14 9 0
54 -14 9 0
54 14 -9 0
-55 -15 -10 0
-55 15 10 0
55 -15 10 0
55 15 -10 0
-51 -52 0
-51 -53 0
-51 -54 0
-51 -55 0
-52 -53 0
-52 -54 0
-52 -55 0
-53 -54 0
-53 -55 0
-54 -55 0
51 52 53 54 55 0
-56 -16 -11 0
-56 16 11 0
56 -16 11 0
56 16 -11 0
-57 -17 -12 0
-57 17 12 0
57 -17 12 0
57 17 -12 0
-58 -18 -13 0
-58 18 13 0
58 -18 13 0
58 18 -13 0
-59 -19 -14 0
-59 19 14 0
59 -19 14 0
59 19 -14 0
-60 -20 -15 0
-60 20 15 0
60 -20 15 0
60 20 -15 0
-56 -57 0
-56 -58 0
-56 -59 0
-56 -60 0
-57 -58 0
-57 -59 0
-57 -60 0
-58 -59 0
-58 -60 0
-59 -60 0
56 57 58 59 60 0
-61 -21 -16 0
-61 21 16 0
61 -21 16 0
61 21 -16 0
-62 -22 -17 0
-62 22 17 0
62 -22 17 0
62 22 -17 0
-63 -23 -18 0
-63 23 18 0
63 -23 18 0
63 23 -18 0
-64 -24 -19 0
-64 24 19 0
64 -24 19 0
64 24 -19 0
-65 -25 -20 0
-65 25 20 0
65 -25 20 0
65 25 -20 0
-61 -62 0
-61 -63 0
-61 -64 0
-61 -65 0
-62 -63 0
-62 -64 0
-62 -65 0
-63 -64 0
-63 -65 0
-64 -65 0
61 62 63 64 65 0
-66 -26 -21 0
-66 26 21 0
66 -26 21 0
66 26 -21 0
-67 -27 -22 0
-67 27 22 0
67 -27 22 0
67 27 -22 0
-68 -28 -23 0
-68 28 23 0
68 -28 23 0
68 28 -23 0
-69 -29 -24 0
-69 29 24 0
69 -29 24 0
69 29 -24 0
-70 -30 -25 0
-70 30 25 0
70 -30 25 0
70 30 -25 0
-66 -67 0
-66 -68 0
-66 -69 0
-66 -70 0
-67 -68 0
-67 -69 0
-67 -70 0
-68 -69 0
-68 -70 0
-69 -70 0
66 67 68 69 70 0
-71 -31 -26 0
-71 31 26 0
71 -31 26 0
71 31 -26 0
-72 -32 -27 0
-72 32 27 0
72 -32 27 0
72 32 -27 0
-73 -33 -28 0
-73 33 28 0
73 -33 28 0
73 33 -28 0
-74 -34 -29 0
-74 34 29 0
74 -34 29 0
74 34 -29 0
-75 -35 -30 0
-75 35 30 0
75 -35 30 0
75 35 -30 0
-71 -72 0
-71 -73 0
-71 -74 0
-71 -75 0
-72 -73 0
-72 -74 0
-72 -75 0
-73 -74 0
-73 -75 0
-74 -75 0
71 72 73 74 75 0
-76 -36 -31 0
-76 36 31 0
76 -36 31 0
76 36 -31 0
-77 -37 -32 0
-77 37 32 0
77 -37 32 0
77 37 -32 0
-78 -38 -33 0
-78 38 33 0
78 -38 33 0
78 38 -33 0
-79 -39 -34 0
-79 39 34 0
79 -39 34 0
79 39 -34 0
-80 -40 -35 0
-80 40 35 0
80 -40 35 0
80 40 -35 0
-76 -77 0
-76 -78 0
-76 -79 0
-76 -80 0
-77 -78 0
-77 -79 0
-77 -80 0
-78 -79 0
-78 -80 0
-79 -80 0
76 77 78 79 80 0
-81 -41 -36 0
-81 41 36 0
81 -41 36 0
81 41 -36 0
-82 -42 -37 0
-82 42 37 0
82 -42 37 0
82 42 -37 0
-83 -43 -38 0
-83 43 38 0
83 -43 38 0
83 43 -38 0
-84 -44 -39 0
-84 44 39 0
84 -44 39 0
84 44 -39 0
-85 -45 -40 0
-85 45 40 0
85 -45 40 0
85 45 -40 0
-81 -82 0
-81 -83 0
-81 -84 0
-81 -85 0
-82 -83 0
-82 -84 0
-82 -85 0
-83 -84 0
-83 -85 0
-84 -85 0
81 82 83 84 85 0
-86 -11 -1 0
-86 11 1 0
86 -11 1 0
86 11 -1 0
-87 -12 -2 0
-87 12 2 0
87 -12 2 0
87 12 -2 0
-88 -13 -3 0
-88 13 3 0
88 -13 3 0
88 13 -3 0
-89 -14 -4 0
-89 14 4 0
89 -14 4 0
89 14 -4 0
-90 -15 -5 0
-90 15 5 0
90 -15 5 0
90 15 -5 0
86 87 88 89 90 0
-86 87 88 89 90 0
86 -87 88 89 90 0
86 87 -88 89 90 0
86 87 88 -89 90 0
86 87 88 89 -90 0
-91 -16 -6 0
-91 16 6 0
91 -16 6 0
91 16 -6 0
-92 -17 -7 0
-92 17 7 0
92 -17 7 0
92 17 -7 0
-93 -18 -8 0
-93 18 8 0
93 -18 8 0
93 18 -8 0
-94 -19 -9 0
-94 19 9 0
94 -19 9 0
94 19 -9 0
-95 -20 -10 0
-95 20 10 0
95 -20 10 0
95 20 -10 0
91 92 93 94 95 0
-91 92 93 94 95 0
91 -92 93 94 95 0
91 92 -93 94 95 0
91 92 93 -94 95 0
91 92 93 94 -95 0
-96 -16 -1 0
-96 16 1 0
96 -16 1 0
96 16 -1 0
-97 -17 -2 0
-97 17 2 0
97 -17 2 0
97 17 -2 0
-98 -18 -3 0
-98 18 3 0
98 -18 3 0
98 18 -3 0
-99 -19 -4 0
-99 19 4 0
99 -19 4 0
99 19 -4 0
-100 -20 -5 0
-100 20 5 0
100 -20 5 0
100 20 -5 0
96 97 98 99 100 0
-96 97 98 99 100 0
96 -97 98 99 100 0
96 97 -98 99 100 0
96 97 98 -99 100 0
96 97 98 99 -100 0
-101 -21 -11 0
-101 21 11 0
101 -21 11 0
101 21 -11 0
-102 -22 -12 0
-102 22 12 0
102 -22 12 0
102 22 -12 0
-103 -23 -13 0
-103 23 13 0
103 -23 13 0
103 23 -13 0
-104 -24 -14 0
-104 24 14 0
104 -24 14 0
104 24 -14 0
-105 -25 -15 0
-105 25 15 0
105 -25 15 0
105 25 -15 0
101 102 103 104 105 0
-101 102 103 104 105 0
101 -102 103 104 105 0
101 102 -103 104 105 0
101 102 103 -104 105 0
101 102 103 104 -105 0
-106 -21 -6 0
-106 21 6 0
106 -21 6 0
106 21 -6 0
-107 -22 -7 0
-107 22 7 0
107 -22 7 0
107 22 -7 0
-108 -23 -8 0
-108 23 8 0
108 -23 8 0
108 23 -8 0
-109 -24 -9 0
-109 24 9 0
109 -24 9 0
109 24 -9 0
-110 -25 -10 0
-110 25 10 0
110 -25 10 0
110 25 -10 0
106 107 108 109 110 0
-106 107 108 109 110 0
106 -107 108 109 110 0
106 107 -108 109 110 0
106 107 108 -109 110 0
106 107 108 109 -110 0
-111 -21 -1 0
-111 21 1 0
111 -21 1 0
111 21 -1 0
-112 -22 -2 0
-112 22 2 0
112 -22 2 0
112 22 -2 0
-113 -23 -3 0
-113 23 3 0
113 -23 3 0
113 23 -3 0
-114 -24 -4 0
-114 24 4 0
114 -24 4 0
114 24 -4 0
-115 -25 -5 0
-115 25 5 0
115 -25 5 0
115 25 -5 0
111 112 113 114 115 0
-111 112 113 114 115 0
111 -112 113 114 115 0
111 112 -113 114 115 0
111 112 113 -114 115 0
111 112 113 114 -115 0
-116 -26 -16 0
-116 26 16 0
116 -26 16 0
116 26 -16 0
-117 -27 -17 0
-117 27 17 0
117 -27 17 0
117 27 -17 0
-118 -28 -18 0
-118 28 18 0
118 -28 18 0
118 28 -18 0
-119 -29 -19 0
-119 29 19 0
119 -29 19 0
119 29 -19 0
-120 -30 -20 0
-120 30 20 0
120 -30 20 0
120 30 -20 0
116 117 118 119 120 0
-116 117 118 119 120 0
116 -117 118 119 120 0
116 117 -118 119 120 0
116 117 118 -119 120 0
116 117 118 119 -120 0
-121 -26 -11 0
-121 26 11 0
121 -26 11 0
121 26 -11 0
-122 -27 -12 0
-122 27 12 0
122 -27 12 0
122 27 -12 0
-123 -28 -13 0
-123 28 13 0
123 -28 13 0
123 28 -13 0
-124 -29 -14 0
-124 29 14 0
124 -29 14 0
124 29 -14 0
-125 -30 -15 0
-125 30 15 0
125 -30 15 0
125 30 -15 0
121 122 123 124 125 0
-121 122 123 124 125 0
121 -122 123 124 125 0
121 122 -123 124 125 0
121 122 123 -124 125 0
121 122 123 124 -125 0
-126 -26 -6 0
-126 26 6 0
126 -26 6 0
126 26 -6 0
-127 -27 -7 0
-127 27 7 0
127 -27 7 0
127 27 -7 0
-128 -28 -8 0
-128 28 8 0
128 -28 8 0
128 28 -8 0
-129 -29 -9 0
-129 29 9 0
129 -29 9 0
129 29 -9 0
-130 -30 -10 0
-130 30 10 0
130 -30 10 0
130 30 -10 0
126 127 128 129 130 0
-126 127 128 129 130 0
126 -127 128 129 130 0
126 127 -128 129 130 0
126 127 128 -129 130 0
126 127 128 129 -130 0
-131 -26 -1 0
-131 26 1 0
131 -26 1 0
131 26 -1 0
-132 -27 -2 0
-132 27 2 0
132 -27 2 0
132 27 -2 0
-133 -28 -3 0
-133 28 3 0
133 -28 3 0
133 28 -3 0
-134 -29 -4 0
-134 29 4 0
134 -29 4 0
134 29 -4 0
-135 -30 -5 0
-135 30 5 0
135 -30 5 0
135 30 -5 0
131 132 133 134 135 0
-131 132 133 134 135 0
131 -132 133 134 135 0
131 132 -133 134 135 0
131 132 133 -134 135 0
131 132 133 134 -135 0
-136 -31 -21 0
-136 31 21 0
136 -31 21 0
136 31 -21 0
-137 -32 -22 0
-137 32 22 0
137 -32 22 0
137 32 -22 0
-138 -33 -23 0
-138 33 23 0
138 -33 23 0
138 33 -23 0
-139 -34 -24 0
-139 34 24 0
139 -34 24 0
139 34 -24 0
-140 -35 -25 0
-140 35 25 0
140 -35 25 0
140 35 -25 0
136 137 138 139 140 0
-136 137 138 139 140 0
136 -137 138 139 140 0
136 137 -138 139 140 0
136 137 138 -139 140 0
136 137 138 139 -140 0
-141 -31 -16 0
-141 31 16 0
141 -31 16 0
141 31 -16 0
-142 -32 -17 0
-142 32 17 0
142 -32 17 0
142 32 -17 0
-143 -33 -18 0
-143 33 18 0
143 -33 18 0
143 33 -18 0
-144 -34 -19 0
-144 34 19 0
144 -34 19 0
144 34 -19 0
-145 -35 -20 0
-145 35 20 0
145 -35 20 0
145 35 -20 0
141 142 143 144 145 0
-141 142 143 144 145 0
141 -142 143 144 145 0
141 142 -143 144 145 0
141 142 143 -144 145 0
141 142 143 144 -145 0
-146 -31 -11 0
-146 31 11 0
146 -31 11 0
146 31 -11 0
-147 -32 -12 0
-147 32 12 0
147 -32 12 0
147 32 -12 0
-148 -33 -13 0
-148 33 13 0
148 -33 13 0
148 33 -13 0
-149 -34 -14 0
-149 34 14 0
149 -34 14 0
149 34 -14 0
-150 -35 -15 0
-150 35 15 0
150 -35 15 0
150 35 -15 0
146 147 148 149 150 0
-146 147 148 149 150 0
146 -147 148 149 150 0
146 147 -148 149 150 0
146 147 148 -149 150 0
146 147 148 149 -150 0
-151 -31 -6 0
-151 31 6 0
151 -31 6 0
151 31 -6 0
-152 -32 -7 0
-152 32 7 0
152 -32 7 0
152 32 -7 0
-153 -33 -8 0
-153 33 8 0
153 -33 8 0
153 33 -8 0
-154 -34 -9 0
-154 34 9 0
154 -34 9 0
154 34 -9 0
-155 -35 -10 0
-155 35 10 0
155 -35 10 0
155 35 -10 0
151 152 153 154 155 0
-151 152 153 154 155 0
151 -152 153 154 155 0
151 152 -153 154 155 0
151 152 153 -154 155 0
151 152 153 154 -155 0
-156 -31 -1 0
-156 31 1 0
156 -31 1 0
156 31 -1 0
-157 -32 -2 0
-157 32 2 0
157 -32 2 0
157 32 -2 0
-158 -33 -3 0
-158 33 3 0
158 -33 3 0
158 33 -3 0
-159 -34 -4 0
-159 34 4 0
159 -34 4 0
159 34 -4 0
-160 -35 -5 0
-160 35 5 0
160 -35 5 0
160 35 -5 0
156 157 158 159 160 0
-156 157 158 159 160 0
156 -157 158 159 160 0
156 157 -158 159 160 0
156 157 158 -159 160 0
156 157 158 159 -160 0
-161 -36 -26 0
-161 36 26 0
161 -36 26 0
161 36 -26 0
-162 -37 -27 0
-162 37 27 0
162 -37 27 0
162 37 -27 0
-163 -38 -28 0
-163 38 28 0
163 -38 28 0
163 38 -28 0
-164 -39 -29 0
-164 39 29 0
164 -39 29 0
164 39 -29 0
-165 -40 -30 0
-165 40 30 0
165 -40 30 0
165 40 -30 0
161 162 163 164 165 0
-161 162 163 164 165 0
161 -162 163 164 165 0
161 162 -163 164 165 0
161 162 163 -164 165 0
161 162 163 164 -165 0
-166 -36 -21 0
-166 36 21 0
166 -36 21 0
166 36 -21 0
-167 -37 -22 0
-167 37 22 0
167 -37 22 0
167 37 -22 0
-168 -38 -23 0
-168 38 23 0
168 -38 23 0
168 38 -23 0
-169 -39 -24 0
-169 39 24 0
169 -39 24 0
169 39 -24 0
-170 -40 -25 0
-170 40 25 0
170 -40 25 0
170 40 -25 0
166 167 168 169 170 0
-166 167 168 169 170 0
166 -167 168 169 170 0
166 167 -168 169 170 0
166 167 168 -169 170 0
166 167 168 169 -170 0
-171 -36 -16 0
-171 36 16 0
171 -36 16 0
171 36 -16 0
-172 -37 -17 0
-172 37 17 0
172 -37 17 0
172 37 -17 0
-173 -38 -18 0
-173 38 18 0
173 -38 18 0
173 38 -18 0
-174 -39 -19 0
-174 39 19 0
174 -39 19 0
174 39 -19 0
-175 -40 -20 0
-175 40 20 0
175 -40 20 0
175 40 -20 0
171 172 173 174 175 0
-171 172 173 174 175 0
171 -172 173 174 175 0
171 172 -173 174 175 0
171 172 173 -174 175 0
171 172 173 174 -175 0
-176 -36 -11 0
-176 36 11 0
176 -36 11 0
176 36 -11 0
-177 -37 -12 0
-177 37 12 0
177 -37 12 0
177 37 -12 0
-178 -38 -13 0
-178 38 13 0
178 -38 13 0
178 38 -13 0
-179 -39 -14 0
-179 39 14 0
179 -39 14 0
179 39 -14 0
-180 -40 -15 0
-180 40 15 0
180 -40 15 0
180 40 -15 0
176 177 178 179 180 0
-176 177 178 179 180 0
176 -177 178 179 180 0
176 177 -178 179 180 0
176 177 178 -179 180 0
176 177 178 179 -180 0
-181 -36 -6 0
-181 36 6 0
181 -36 6 0
181 36 -6 0
-182 -37 -7 0
-182 37 7 0
182 -37 7 0
182 37 -7 0
-183 -38 -8 0
-183 38 8 0
183 -38 8 0
183 38 -8 0
-184 -39 -9 0
-184 39 9 0
184 -39 9 0
184 39 -9 0
-185 -40 -10 0
-185 40 10 0
185 -40 10 0
185 40 -10 0
181 182 183 184 185 0
-181 182 183 184 185 0
181 -182 183 184 185 0
181 182 -183 184 185 0
181 182 183 -184 185 0
181 182 183 184 -185 0
-186 -36 -1 0
-186 36 1 0
186 -36 1 0
186 36 -1 0
-187 -37 -2 0
-187 37 2 0
187 -37 2 0
187 37 -2 0
-188 -38 -3 0
-188 38 3 0
188 -38 3 0
188 38 -3 0
-189 -39 -4 0
-189 39 4 0
189 -39 4 0
189 39 -4 0
-190 -40 -5 0
-190 40 5 0
190 -40 5 0
190 40 -5 0
186 187 188 189 190 0
-186 187 188 189 190 0
186 -187 188 189 190 0
186 187 -188 189 190 0
186 187 188 -189 190 0
186 187 188 189 -190 0
-191 -41 -31 0
-191 41 31 0
191 -41 31 0
191 41 -31 0
-192 -42 -32 0
-192 42 32 0
192 -42 32 0
192 42 -32 0
-193 -43 -33 0
-193 43 33 0
193 -43 33 0
193 43 -33 0
-194 -44 -34 0
-194 44 34 0
194 -44 34 0
194 44 -34 0
-195 -45 -35 0
-195 45 35 0
195 -45 35 0
195 45 -35 0
191 192 193 194 195 0
-191 192 193 194 195 0
191 -192 193 194 195 0
191 192 -193 194 195 0
191 192 193 -194 195 0
191 192 193 194 -195 0
-196 -41 -26 0
-196 41 26 0
196 -41 26 0
196 41 -26 0
-197 -42 -27 0
-197 42 27 0
197 -42 27 0
197 42 -27 0
-198 -43 -28 0
-198 43 28 0
198 -43 28 0
198 43 -28 0
-199 -44 -29 0
-199 44 29 0
199 -44 29 0
199 44 -29 0
-200 -45 -30 0
-200 45 30 0
200 -45 30 0
200 45 -30 0
196 197 198 199 200 0
-196 197 198 199 200 0
196 -197 198 199 200 0
196 197 -198 199 200 0
196 197 198 -199 200 0
196 197 198 199 -200 0
-201 -41 -21 0
-201 41 21 0
201 -41 21 0
201 41 -21 0
-202 -42 -22 0
-202 42 22 0
202 -42 22 0
202 42 -22 0
-203 -43 -23 0
-203 43 23 0
203 -43 23 0
203 43 -23 0
-204 -44 -24 0
-204 44 24 0
204 -44 24 0
204 44 -24 0
-205 -45 -25 0
-205 45 25 0
205 -45 25 0
205 45 -25 0
201 202 203 204 205 0
-201 202 203 204 205 0
201 -202 203 204 205 0
201 202 -203 204 205 0
201 202 203 -204 205 0
201 202 203 204 -205 0
-206 -41 -16 0
-206 41 16 0
206 -41 16 0
206 41 -16 0
-207 -42 -17 0
-207 42 17 0
207 -42 17 0
207 42 -17 0
-208 -43 -18 0
-208 43 18 0
208 -43 18 0
208 43 -18 0
-209 -44 -19 0
-209 44 19 0
209 -44 19 0
209 44 -19 0
-210 -45 -20 0
-210 45 20 0
210 -45 20 0
210 45 -20 0
206 207 208 209 210 0
-206 207 208 209 210 0
206 -207 208 209 210 0
206 207 -208 209 210 0
206 207 208 -209 210 0
206 207 208 209 -210 0
-211 -41 -11 0
-211 41 11 0
211 -41 11 0
211 41 -11 0
-212 -42 -12 0
-212 42 12 0
212 -42 12 0
212 42 -12 0
-213 -43 -13 0
-213 43 13 0
213 -43 13 0
213 43 -13 0
-214 -44 -14 0
-214 44 14 0
214 -44 14 0
214 44 -14 0
-215 -45 -15 0
-215 45 15 0
215 -45 15 0
215 45 -15 0
211 212 213 214 215 0
-211 212 213 214 215 0
211 -212 213 214 215 0
211 212 -213 214 215 0
211 212 213 -214 215 0
211 212 213 214 -215 0
-216 -41 -6 0
-216 41 6 0
216 -41 6 0
216 41 -6 0
-217 -42 -7 0
-217 42 7 0
217 -42 7 0
217 42 -7 0
-218 -43 -8 0
-218 43 8 0
218 -43 8 0
218 43 -8 0
-219 -44 -9 0
-219 44 9 0
219 -44 9 0
219 44 -9 0
-220 -45 -10 0
-220 45 10 0
220 -45 10 0
220 45 -10 0
216 217 218 219 220 0
-216 217 218 219 220 0
216 -217 218 219 220 0
216 217 -218 219 220 0
216 217 218 -219 220 0
216 217 218 219 -220 0
-221 -41 -1 0
-221 41 1 0
221 -41 1 0
221 41 -1 0
-222 -42 -2 0
-222 42 2 0
222 -42 2 0
222 42 -2 0
-223 -43 -3 0
-223 43 3 0
223 -43 3 0
223 43 -3 0
-224 -44 -4 0
-224 44 4 0
224 -44 4 0
224 44 -4 0
-225 -45 -5 0
-225 45 5 0
225 -45 5 0
225 45 -5 0
221 222 223 224 225 0
-221 222 223 224 225 0
221 -222 223 224 225 0
221 222 -223 224 225 0
221 222 223 -224 225 0
221 222 223 224 -225 0
